* SDPA sparse format data
* File name = mhw4d.dat-s
* mDim =  67, nBlock =  3
* size of bVect = 1 *  67
* size of sparseMatrix =  259 * 5
 67
  3
-52  8 10 
  -0.3333333333    0.0000000000    0.0000000000    0.0000000000    0.0000000000    0.3333333333   -0.3333333333    0.0000000000    0.0000000000    0.0000000000    0.1666666667    0.0000000000    0.0000000000    0.0000000000    0.0000000000    0.0000000000    0.0000000000    0.0000000000    0.0000000000    0.0000000000    0.0000000000    0.0000000000    0.0000000000    0.0000000000    0.0000000000    0.0000000000    0.0000000000    0.0000000000    0.0000000000    0.0000000000    0.1666666667   -0.5000000000    0.0000000000    0.5000000000    0.0000000000    0.0000000000   -0.1666666667    0.0000000000    0.0000000000    0.0000000000    0.0000000000    0.0000000000    0.0000000000    0.0000000000    0.0000000000    0.0000000000    0.0000000000    0.0000000000    0.0000000000    0.0000000000    0.0000000000    0.0000000000    0.0000000000    0.0000000000    0.0000000000    0.0000000000    0.0000000000    0.0000000000    0.1666666667   -0.6666666667    1.0000000000   -0.6666666667    0.3333333333   -0.6666666667    1.0000000000   -0.6666666667    0.1666666667 
  0   1   1   1    1.0000000000
 11   1   1   1    0.1601886205
 37   1   1   1    0.1601886205
  1   1   1   1    0.1601886205
  0   1   2   2    0.8284271247
 14   1   2   2   -1.0000000000
  2   1   2   2    1.0000000000
  4   1   2   2    1.0000000000
  1   1   3   3   -0.8284271247
 26   1   3   3   -1.0000000000
  7   1   3   3    1.0000000000
  9   1   3   3    1.0000000000
  2   1   4   4   -0.8284271247
 34   1   4   4   -1.0000000000
 11   1   4   4    1.0000000000
 13   1   4   4    1.0000000000
  3   1   5   5   -0.8284271247
 37   1   5   5   -1.0000000000
 12   1   5   5    1.0000000000
 15   1   5   5    1.0000000000
  4   1   6   6   -0.8284271247
 38   1   6   6   -1.0000000000
 13   1   6   6    1.0000000000
 16   1   6   6    1.0000000000
  6   1   7   7   -0.8284271247
 45   1   7   7   -1.0000000000
 19   1   7   7    1.0000000000
 21   1   7   7    1.0000000000
  7   1   8   8   -0.8284271247
 48   1   8   8   -1.0000000000
 23   1   8   8    1.0000000000
 25   1   8   8    1.0000000000
  8   1   9   9   -0.8284271247
 49   1   9   9   -1.0000000000
 24   1   9   9    1.0000000000
 27   1   9   9    1.0000000000
  9   1  10  10   -0.8284271247
 50   1  10  10   -1.0000000000
 25   1  10  10    1.0000000000
 28   1  10  10    1.0000000000
 11   1  11  11   -0.8284271247
 55   1  11  11   -1.0000000000
 31   1  11  11    1.0000000000
 33   1  11  11    1.0000000000
 12   1  12  12   -0.8284271247
 56   1  12  12   -1.0000000000
 32   1  12  12    1.0000000000
 35   1  12  12    1.0000000000
 13   1  13  13   -0.8284271247
 57   1  13  13   -1.0000000000
 33   1  13  13    1.0000000000
 36   1  13  13    1.0000000000
 14   1  14  14   -0.8284271247
 59   1  14  14   -1.0000000000
 34   1  14  14    1.0000000000
 38   1  14  14    1.0000000000
 15   1  15  15   -0.8284271247
 60   1  15  15   -1.0000000000
 35   1  15  15    1.0000000000
 39   1  15  15    1.0000000000
 16   1  16  16   -0.8284271247
 61   1  16  16   -1.0000000000
 36   1  16  16    1.0000000000
 40   1  16  16    1.0000000000
  0   1  17  17    1.0000000000
 10   1  17  17    0.5000000000
  1   1  18  18   -1.0000000000
 22   1  18  18    0.5000000000
  4   1  19  19   -1.0000000000
 29   1  19  19    0.5000000000
  5   1  20  20   -1.0000000000
 30   1  20  20    0.5000000000
  6   1  21  21   -1.0000000000
 44   1  21  21    0.5000000000
  9   1  22  22   -1.0000000000
 46   1  22  22    0.5000000000
 10   1  23  23   -1.0000000000
 47   1  23  23    0.5000000000
 16   1  24  24   -1.0000000000
 52   1  24  24    0.5000000000
 17   1  25  25   -1.0000000000
 53   1  25  25    0.5000000000
 18   1  26  26   -1.0000000000
 54   1  26  26    0.5000000000
  0   1  27  27   -1.0000000000
 11   1  27  27   -0.1601886205
 37   1  27  27   -0.1601886205
  1   1  27  27   -0.1601886205
  0   1  28  28   -0.8284271247
 14   1  28  28    1.0000000000
  2   1  28  28   -1.0000000000
  4   1  28  28   -1.0000000000
  1   1  29  29    0.8284271247
 26   1  29  29    1.0000000000
  7   1  29  29   -1.0000000000
  9   1  29  29   -1.0000000000
  2   1  30  30    0.8284271247
 34   1  30  30    1.0000000000
 11   1  30  30   -1.0000000000
 13   1  30  30   -1.0000000000
  3   1  31  31    0.8284271247
 37   1  31  31    1.0000000000
 12   1  31  31   -1.0000000000
 15   1  31  31   -1.0000000000
  4   1  32  32    0.8284271247
 38   1  32  32    1.0000000000
 13   1  32  32   -1.0000000000
 16   1  32  32   -1.0000000000
  6   1  33  33    0.8284271247
 45   1  33  33    1.0000000000
 19   1  33  33   -1.0000000000
 21   1  33  33   -1.0000000000
  7   1  34  34    0.8284271247
 48   1  34  34    1.0000000000
 23   1  34  34   -1.0000000000
 25   1  34  34   -1.0000000000
  8   1  35  35    0.8284271247
 49   1  35  35    1.0000000000
 24   1  35  35   -1.0000000000
 27   1  35  35   -1.0000000000
  9   1  36  36    0.8284271247
 50   1  36  36    1.0000000000
 25   1  36  36   -1.0000000000
 28   1  36  36   -1.0000000000
 11   1  37  37    0.8284271247
 55   1  37  37    1.0000000000
 31   1  37  37   -1.0000000000
 33   1  37  37   -1.0000000000
 12   1  38  38    0.8284271247
 56   1  38  38    1.0000000000
 32   1  38  38   -1.0000000000
 35   1  38  38   -1.0000000000
 13   1  39  39    0.8284271247
 57   1  39  39    1.0000000000
 33   1  39  39   -1.0000000000
 36   1  39  39   -1.0000000000
 14   1  40  40    0.8284271247
 59   1  40  40    1.0000000000
 34   1  40  40   -1.0000000000
 38   1  40  40   -1.0000000000
 15   1  41  41    0.8284271247
 60   1  41  41    1.0000000000
 35   1  41  41   -1.0000000000
 39   1  41  41   -1.0000000000
 16   1  42  42    0.8284271247
 61   1  42  42    1.0000000000
 36   1  42  42   -1.0000000000
 40   1  42  42   -1.0000000000
  0   1  43  43   -1.0000000000
 10   1  43  43   -0.5000000000
  1   1  44  44    1.0000000000
 22   1  44  44   -0.5000000000
  4   1  45  45    1.0000000000
 29   1  45  45   -0.5000000000
  5   1  46  46    1.0000000000
 30   1  46  46   -0.5000000000
  6   1  47  47    1.0000000000
 44   1  47  47   -0.5000000000
  9   1  48  48    1.0000000000
 46   1  48  48   -0.5000000000
 10   1  49  49    1.0000000000
 47   1  49  49   -0.5000000000
 16   1  50  50    1.0000000000
 52   1  50  50   -0.5000000000
 17   1  51  51    1.0000000000
 53   1  51  51   -0.5000000000
 18   1  52  52    1.0000000000
 54   1  52  52   -0.5000000000
  0   2   1   1   -1.0000000000
  1   2   1   2    1.0000000000
  4   2   1   3    1.0000000000
  5   2   1   4    1.0000000000
 10   2   1   5    1.0000000000
 16   2   1   6    1.0000000000
 17   2   1   7    1.0000000000
 18   2   1   8    1.0000000000
  6   2   2   2    1.0000000000
  9   2   2   3    1.0000000000
 10   2   2   4    1.0000000000
 22   2   2   5    1.0000000000
 28   2   2   6    1.0000000000
 29   2   2   7    1.0000000000
 30   2   2   8    1.0000000000
 16   2   3   3    1.0000000000
 17   2   3   4    1.0000000000
 29   2   3   5    1.0000000000
 40   2   3   6    1.0000000000
 41   2   3   7    1.0000000000
 42   2   3   8    1.0000000000
 18   2   4   4    1.0000000000
 30   2   4   5    1.0000000000
 41   2   4   6    1.0000000000
 42   2   4   7    1.0000000000
 43   2   4   8    1.0000000000
 47   2   5   5    1.0000000000
 52   2   5   6    1.0000000000
 53   2   5   7    1.0000000000
 54   2   5   8    1.0000000000
 63   2   6   6    1.0000000000
 64   2   6   7    1.0000000000
 65   2   6   8    1.0000000000
 65   2   7   7    1.0000000000
 66   2   7   8    1.0000000000
 67   2   8   8    1.0000000000
  0   3   1   1   -1.0000000000
  1   3   1   2    1.0000000000
  2   3   1   3    1.0000000000
  3   3   1   4    1.0000000000
  4   3   1   5    1.0000000000
  8   3   1   6    1.0000000000
 12   3   1   7    1.0000000000
 14   3   1   8    1.0000000000
 15   3   1   9    1.0000000000
 16   3   1  10    1.0000000000
  6   3   2   2    1.0000000000
  7   3   2   3    1.0000000000
  8   3   2   4    1.0000000000
  9   3   2   5    1.0000000000
 20   3   2   6    1.0000000000
 24   3   2   7    1.0000000000
 26   3   2   8    1.0000000000
 27   3   2   9    1.0000000000
 28   3   2  10    1.0000000000
 11   3   3   3    1.0000000000
 12   3   3   4    1.0000000000
 13   3   3   5    1.0000000000
 24   3   3   6    1.0000000000
 32   3   3   7    1.0000000000
 34   3   3   8    1.0000000000
 35   3   3   9    1.0000000000
 36   3   3  10    1.0000000000
 14   3   4   4    1.0000000000
 15   3   4   5    1.0000000000
 26   3   4   6    1.0000000000
 34   3   4   7    1.0000000000
 37   3   4   8    1.0000000000
 38   3   4   9    1.0000000000
 39   3   4  10    1.0000000000
 16   3   5   5    1.0000000000
 27   3   5   6    1.0000000000
 35   3   5   7    1.0000000000
 38   3   5   8    1.0000000000
 39   3   5   9    1.0000000000
 40   3   5  10    1.0000000000
 45   3   6   6    1.0000000000
 48   3   6   7    1.0000000000
 49   3   6   8    1.0000000000
 50   3   6   9    1.0000000000
 51   3   6  10    1.0000000000
 55   3   7   7    1.0000000000
 56   3   7   8    1.0000000000
 57   3   7   9    1.0000000000
 58   3   7  10    1.0000000000
 59   3   8   8    1.0000000000
 60   3   8   9    1.0000000000
 61   3   8  10    1.0000000000
 61   3   9   9    1.0000000000
 62   3   9  10    1.0000000000
 63   3  10  10    1.0000000000
